# Objective value = 2.5878435776360942e+02
allocVar_j_0_k_0 9.9999996948635161e-01
allocVar_j_0_k_1 2.0875779344624020e-08
allocVar_j_0_k_2 9.6354639987297820e-09
allocVar_j_1_k_0 4.4155534032495624e-08
allocVar_j_1_k_1 9.9999992955306816e-01
allocVar_j_1_k_2 2.2958064409199145e-08
allocVar_j_2_k_0 9.9999998476464624e-01
allocVar_j_2_k_1 0
allocVar_j_2_k_2 1.2377626103993808e-08
allocVar_j_3_k_0 9.9999995796972596e-01
allocVar_j_3_k_1 2.0128253685895078e-08
allocVar_j_3_k_2 1.8568687070479416e-08
allocVar_j_4_k_0 9.9999997136718610e-01
allocVar_j_4_k_1 2.5299480580093566e-08
allocVar_j_4_k_2 0
allocVar_j_5_k_0 5.1166152812886685e-08
allocVar_j_5_k_1 0
allocVar_j_5_k_2 9.9999995216718052e-01
allocVar_j_6_k_0 4.2939919451722892e-08
allocVar_j_6_k_1 8.2262335705677363e-09
allocVar_j_6_k_2 9.9999995216718029e-01
allocVar_j_7_k_0 9.9999996181745443e-01
allocVar_j_7_k_1 1.6136215931096569e-08
allocVar_j_7_k_2 1.8712996322112821e-08
allocVar_j_8_k_0 2.7057709571142917e-08
allocVar_j_8_k_1 9.9999995216717630e-01
allocVar_j_8_k_2 1.7441780739226393e-08
allocVar_j_9_k_0 1
allocVar_j_9_k_1 0
allocVar_j_9_k_2 0
cum_prob_j_0_k_0_s_393 0
cum_prob_j_0_k_0_s_398 3.6774917373707276e+03
cum_prob_j_0_k_0_s_390 2.7222343884225602e+03
cum_prob_j_0_k_0_s_392 0
cum_prob_j_0_k_0_s_394 0
cum_prob_j_0_k_0_s_391 0
cum_prob_j_0_k_0_s_395 0
cum_prob_j_0_k_0_s_380 0
cum_prob_j_0_k_0_s_381 0
cum_prob_j_0_k_0_s_382 3.0461009847855639e+03
cum_prob_j_0_k_0_s_383 4.0038495720355559e+03
cum_prob_j_0_k_0_s_384 0
cum_prob_j_0_k_0_s_385 0
cum_prob_j_0_k_0_s_386 0
cum_prob_j_0_k_0_s_387 3.0288263001016458e+03
cum_prob_j_0_k_0_s_388 3.1427370814467467e+03
cum_prob_j_0_k_0_s_389 2.4446719877520136e+03
cum_prob_j_0_k_0_s_399 0
cum_prob_j_0_k_0_s_397 4.8393304046422090e+03
cum_prob_j_0_k_0_s_396 3.3363036422441664e+03
cum_prob_j_0_k_1_s_393 5.3292944623944960e-05
cum_prob_j_0_k_1_s_398 1.3714949282472717e-05
cum_prob_j_0_k_1_s_390 1.0152383537076803e-05
cum_prob_j_0_k_1_s_392 3.2972102032444941e-05
cum_prob_j_0_k_1_s_394 5.6264239511099385e-05
cum_prob_j_0_k_1_s_391 4.5283811926031582e-05
cum_prob_j_0_k_1_s_395 3.1410386460713853e-05
cum_prob_j_0_k_1_s_380 4.1740749425073238e-05
cum_prob_j_0_k_1_s_381 3.2272859354601617e-05
cum_prob_j_0_k_1_s_382 1.1360221449605028e-05
cum_prob_j_0_k_1_s_383 1.4932078094722858e-05
cum_prob_j_0_k_1_s_384 3.1178379207049129e-05
cum_prob_j_0_k_1_s_385 3.8411063897741924e-05
cum_prob_j_0_k_1_s_386 2.9089878746580194e-05
cum_prob_j_0_k_1_s_387 1.1295796716327441e-05
cum_prob_j_0_k_1_s_388 1.1720619041011134e-05
cum_prob_j_0_k_1_s_389 9.1172338971106210e-06
cum_prob_j_0_k_1_s_399 3.1520568203314494e-05
cum_prob_j_0_k_1_s_397 1.8047945665337929e-05
cum_prob_j_0_k_1_s_396 1.2442512046817677e-05
cum_prob_j_0_k_2_s_393 1.5104660252544717e-05
cum_prob_j_0_k_2_s_398 1.1933944557906864e-06
cum_prob_j_0_k_2_s_390 8.8340087715028682e-07
cum_prob_j_0_k_2_s_392 3.0439626067404626e-05
cum_prob_j_0_k_2_s_394 1.5946805495170804e-05
cum_prob_j_0_k_2_s_391 1.2834655673642666e-05
cum_prob_j_0_k_2_s_395 2.8997860602152842e-05
cum_prob_j_0_k_2_s_380 1.1830456042563139e-05
cum_prob_j_0_k_2_s_381 9.1470002149288699e-06
cum_prob_j_0_k_2_s_382 9.8849984898149013e-07
cum_prob_j_0_k_2_s_383 1.2993018672295818e-06
cum_prob_j_0_k_2_s_384 8.8367949729669260e-06
cum_prob_j_0_k_2_s_385 1.0886733210337477e-05
cum_prob_j_0_k_2_s_386 2.6855583260075884e-05
cum_prob_j_0_k_2_s_387 9.8289398650793934e-07
cum_prob_j_0_k_2_s_388 1.0198595338484266e-06
cum_prob_j_0_k_2_s_389 7.9332822607398324e-07
cum_prob_j_0_k_2_s_399 2.9099579656671062e-05
cum_prob_j_0_k_2_s_397 1.5704263903440856e-06
cum_prob_j_0_k_2_s_396 1.0826744297011278e-06
cum_prob_j_1_k_0_s_393 0
cum_prob_j_1_k_0_s_398 6.5077978382789636e-12
cum_prob_j_1_k_0_s_390 4.8173463205772282e-12
cum_prob_j_1_k_0_s_392 0
cum_prob_j_1_k_0_s_394 0
cum_prob_j_1_k_0_s_391 0
cum_prob_j_1_k_0_s_395 6.0408247062866695e-05
cum_prob_j_1_k_0_s_380 0
cum_prob_j_1_k_0_s_381 0
cum_prob_j_1_k_0_s_382 1.3450678488797447e-04
cum_prob_j_1_k_0_s_383 7.0853303377621438e-12
cum_prob_j_1_k_0_s_384 0
cum_prob_j_1_k_0_s_385 0
cum_prob_j_1_k_0_s_386 0
cum_prob_j_1_k_0_s_387 1.3374398604827975e-04
cum_prob_j_1_k_0_s_388 5.5614802874144999e-12
cum_prob_j_1_k_0_s_389 4.3261636164970695e-12
cum_prob_j_1_k_0_s_399 6.0620147859985553e-05
cum_prob_j_1_k_0_s_397 8.5638218107205418e-12
cum_prob_j_1_k_0_s_396 1.4732127351316056e-04
cum_prob_j_1_k_1_s_393 0
cum_prob_j_1_k_1_s_398 1.2258305295543305e+03
cum_prob_j_1_k_1_s_390 1.3285425345683634e+03
cum_prob_j_1_k_1_s_392 1.9582094999659869e-06
cum_prob_j_1_k_1_s_394 0
cum_prob_j_1_k_1_s_391 2.8363780760671443e-05
cum_prob_j_1_k_1_s_395 0
cum_prob_j_1_k_1_s_380 2.6144562816680975e-05
cum_prob_j_1_k_1_s_381 2.0214294431509521e-05
cum_prob_j_1_k_1_s_382 5.4413351031222987e+02
cum_prob_j_1_k_1_s_383 1.3346164700435997e+03
cum_prob_j_1_k_1_s_384 0
cum_prob_j_1_k_1_s_385 0
cum_prob_j_1_k_1_s_386 2.7303280427857682e-05
cum_prob_j_1_k_1_s_387 5.4104768523172640e+02
cum_prob_j_1_k_1_s_388 1.5337620836120068e+03
cum_prob_j_1_k_1_s_389 1.1930826870049038e+03
cum_prob_j_1_k_1_s_399 0
cum_prob_j_1_k_1_s_397 1.6131100696509620e+03
cum_prob_j_1_k_1_s_396 5.9597320456013347e+02
cum_prob_j_1_k_2_s_393 4.5598403250993130e-05
cum_prob_j_1_k_2_s_398 6.5692067471274411e-05
cum_prob_j_1_k_2_s_390 2.1857803946440931e-05
cum_prob_j_1_k_2_s_392 3.8358066399967740e-05
cum_prob_j_1_k_2_s_394 4.8140696670846795e-05
cum_prob_j_1_k_2_s_391 0
cum_prob_j_1_k_2_s_395 0
cum_prob_j_1_k_2_s_380 0
cum_prob_j_1_k_2_s_381 0
cum_prob_j_1_k_2_s_382 9.2549360634975985e-08
cum_prob_j_1_k_2_s_383 7.1521889106688645e-05
cum_prob_j_1_k_2_s_384 2.6676782786677366e-05
cum_prob_j_1_k_2_s_385 3.2865198072052925e-05
cum_prob_j_1_k_2_s_386 0
cum_prob_j_1_k_2_s_387 9.2024505736644672e-08
cum_prob_j_1_k_2_s_388 2.5234172073360060e-05
cum_prob_j_1_k_2_s_389 1.9629155097332883e-05
cum_prob_j_1_k_2_s_399 0
cum_prob_j_1_k_2_s_397 8.6446317805961037e-05
cum_prob_j_1_k_2_s_396 3.0102764035468630e-06
cum_prob_j_2_k_0_s_393 4.5598403250993130e-05
cum_prob_j_2_k_0_s_398 1.2258305497222740e-04
cum_prob_j_2_k_0_s_390 1.3285425564261720e+03
cum_prob_j_2_k_0_s_392 0
cum_prob_j_2_k_0_s_394 0
cum_prob_j_2_k_0_s_391 0
cum_prob_j_2_k_0_s_395 6.0408247062866695e-05
cum_prob_j_2_k_0_s_380 8.0265687603217827e-13
cum_prob_j_2_k_0_s_381 2.0214294431509521e-05
cum_prob_j_2_k_0_s_382 5.4413358834946622e-05
cum_prob_j_2_k_0_s_383 1.3346165415654959e+03
cum_prob_j_2_k_0_s_384 0
cum_prob_j_2_k_0_s_385 0
cum_prob_j_2_k_0_s_386 0
cum_prob_j_2_k_0_s_387 5.4104776282640731e-05
cum_prob_j_2_k_0_s_388 1.5337620803662340e-04
cum_prob_j_2_k_0_s_389 1.1930827066340632e+03
cum_prob_j_2_k_0_s_399 0
cum_prob_j_2_k_0_s_397 1.6131100961906119e-04
cum_prob_j_2_k_0_s_396 5.9597329294090251e-05
cum_prob_j_2_k_1_s_393 0
cum_prob_j_2_k_1_s_398 0
cum_prob_j_2_k_1_s_390 0
cum_prob_j_2_k_1_s_392 4.0516961186979011e-07
cum_prob_j_2_k_1_s_394 4.9265133341836999e-06
cum_prob_j_2_k_1_s_391 0
cum_prob_j_2_k_1_s_395 0
cum_prob_j_2_k_1_s_380 0
cum_prob_j_2_k_1_s_381 0
cum_prob_j_2_k_1_s_382 0
cum_prob_j_2_k_1_s_383 0
cum_prob_j_2_k_1_s_384 0
cum_prob_j_2_k_1_s_385 3.3632840347033774e-06
cum_prob_j_2_k_1_s_386 0
cum_prob_j_2_k_1_s_387 0
cum_prob_j_2_k_1_s_388 0
cum_prob_j_2_k_1_s_389 0
cum_prob_j_2_k_1_s_399 7.1007900405948883e-06
cum_prob_j_2_k_1_s_397 0
cum_prob_j_2_k_1_s_396 0
cum_prob_j_2_k_2_s_393 0
cum_prob_j_2_k_2_s_398 1.3641753121625861e-05
cum_prob_j_2_k_2_s_390 0
cum_prob_j_2_k_2_s_392 2.6067178042882910e-05
cum_prob_j_2_k_2_s_394 2.2240771112197130e-05
cum_prob_j_2_k_2_s_391 8.4994856789817760e-06
cum_prob_j_2_k_2_s_395 0
cum_prob_j_2_k_2_s_380 5.4292349920933629e-06
cum_prob_j_2_k_2_s_381 0
cum_prob_j_2_k_2_s_382 1.6949388571990021e-05
cum_prob_j_2_k_2_s_383 0
cum_prob_j_2_k_2_s_384 1.7784521857784912e-05
cum_prob_j_2_k_2_s_385 1.5183563978628533e-05
cum_prob_j_2_k_2_s_386 8.1816963311031554e-06
cum_prob_j_2_k_2_s_387 1.6853267220587434e-05
cum_prob_j_2_k_2_s_388 8.5342970286245153e-06
cum_prob_j_2_k_2_s_389 0
cum_prob_j_2_k_2_s_399 1.3805435723986361e-05
cum_prob_j_2_k_2_s_397 3.9937784468726774e-05
cum_prob_j_2_k_2_s_396 4.1300520313210670e-05
cum_prob_j_3_k_0_s_393 0
cum_prob_j_3_k_0_s_398 8.1947536527914216e-12
cum_prob_j_3_k_0_s_390 1.3285425208279779e-04
cum_prob_j_3_k_0_s_392 0
cum_prob_j_3_k_0_s_394 0
cum_prob_j_3_k_0_s_391 0
cum_prob_j_3_k_0_s_395 0
cum_prob_j_3_k_0_s_380 0
cum_prob_j_3_k_0_s_381 0
cum_prob_j_3_k_0_s_382 3.9251858122959975e-13
cum_prob_j_3_k_0_s_383 1.3346164700436068e-04
cum_prob_j_3_k_0_s_384 1.7784521857784912e-05
cum_prob_j_3_k_0_s_385 0
cum_prob_j_3_k_0_s_386 8.1816963311031554e-06
cum_prob_j_3_k_0_s_387 3.1350599539831357e-12
cum_prob_j_3_k_0_s_388 1.2795457921633974e-11
cum_prob_j_3_k_0_s_389 1.1930827066340632e+03
cum_prob_j_3_k_0_s_399 0
cum_prob_j_3_k_0_s_397 1.0368013125869932e-11
cum_prob_j_3_k_0_s_396 0
cum_prob_j_3_k_1_s_393 2.2253565282493891e-05
cum_prob_j_3_k_1_s_398 1.0686651342936791e-05
cum_prob_j_3_k_1_s_390 1.7373124406954659e-05
cum_prob_j_3_k_1_s_392 1.3505657578706588e-07
cum_prob_j_3_k_1_s_394 1.6421711442407008e-06
cum_prob_j_3_k_1_s_391 4.1480369034791442e-06
cum_prob_j_3_k_1_s_395 5.9909135881088618e-06
cum_prob_j_3_k_1_s_380 -1.1370974287993527e-06
cum_prob_j_3_k_1_s_381 9.8652603753477267e-06
cum_prob_j_3_k_1_s_382 1.3277780687708761e-05
cum_prob_j_3_k_1_s_383 3.4905104452935422e-05
cum_prob_j_3_k_1_s_384 0
cum_prob_j_3_k_1_s_385 1.0692886573136652e-05
cum_prob_j_3_k_1_s_386 0
cum_prob_j_3_k_1_s_387 1.9329774226095792e-05
cum_prob_j_3_k_1_s_388 6.6855818301967543e-06
cum_prob_j_3_k_1_s_389 0
cum_prob_j_3_k_1_s_399 1.0202946302785982e-05
cum_prob_j_3_k_1_s_397 1.9210292845769136e-05
cum_prob_j_3_k_1_s_396 1.9865776243063233e-05
cum_prob_j_3_k_2_s_393 0
cum_prob_j_3_k_2_s_398 1.4811545024752439e-05
cum_prob_j_3_k_2_s_390 0
cum_prob_j_3_k_2_s_392 1.7378118618261005e-05
cum_prob_j_3_k_2_s_394 1.4827180675772485e-05
cum_prob_j_3_k_2_s_391 0
cum_prob_j_3_k_2_s_395 2.8290337532360072e-05
cum_prob_j_3_k_2_s_380 5.8947964985433095e-06
cum_prob_j_3_k_2_s_381 0
cum_prob_j_3_k_2_s_382 1.8402813021009580e-05
cum_prob_j_3_k_2_s_383 0
cum_prob_j_3_k_2_s_384 0
cum_prob_j_3_k_2_s_385 -1.0073416840628595e-06
cum_prob_j_3_k_2_s_386 0
cum_prob_j_3_k_2_s_387 0
cum_prob_j_3_k_2_s_388 9.2661202388786248e-06
cum_prob_j_3_k_2_s_389 0
cum_prob_j_3_k_2_s_399 0
cum_prob_j_3_k_2_s_397 2.6625189527854155e-05
cum_prob_j_3_k_2_s_396 2.7533680086818267e-05
cum_prob_j_4_k_0_s_393 0
cum_prob_j_4_k_0_s_398 2.5498204562442884e-05
cum_prob_j_4_k_0_s_390 1.3079553051562084e-11
cum_prob_j_4_k_0_s_392 1.7513175194048071e-05
cum_prob_j_4_k_0_s_394 0
cum_prob_j_4_k_0_s_391 0
cum_prob_j_4_k_0_s_395 0
cum_prob_j_4_k_0_s_380 -3.7542868693546362e-13
cum_prob_j_4_k_0_s_381 9.8652603753477267e-06
cum_prob_j_4_k_0_s_382 3.1680594101236917e-05
cum_prob_j_4_k_0_s_383 1.2844722375305028e-11
cum_prob_j_4_k_0_s_384 0
cum_prob_j_4_k_0_s_385 9.6850454560262565e-06
cum_prob_j_4_k_0_s_386 8.1816963311031554e-06
cum_prob_j_4_k_0_s_387 -3.7288375862983631e-13
cum_prob_j_4_k_0_s_388 2.0825252681287664e-13
cum_prob_j_4_k_0_s_389 1.1930827066340632e+03
cum_prob_j_4_k_0_s_399 -4.7556541196508550e-13
cum_prob_j_4_k_0_s_397 0
cum_prob_j_4_k_0_s_396 0
cum_prob_j_4_k_1_s_393 7.4178550941646307e-06
cum_prob_j_4_k_1_s_398 0
cum_prob_j_4_k_1_s_390 9.4833990252780554e-06
cum_prob_j_4_k_1_s_392 0
cum_prob_j_4_k_1_s_394 8.0376015333177410e-06
cum_prob_j_4_k_1_s_391 1.3826789678263814e-06
cum_prob_j_4_k_1_s_395 1.6730411711473844e-05
cum_prob_j_4_k_1_s_380 4.1549508436075569e-06
cum_prob_j_4_k_1_s_381 0
cum_prob_j_4_k_1_s_382 0
cum_prob_j_4_k_1_s_383 1.9482081662440882e-05
cum_prob_j_4_k_1_s_384 8.6794490588118634e-06
cum_prob_j_4_k_1_s_385 0
cum_prob_j_4_k_1_s_386 0
cum_prob_j_4_k_1_s_387 7.6867605380402591e-06
cum_prob_j_4_k_1_s_388 6.7686342962492062e-06
cum_prob_j_4_k_1_s_389 0
cum_prob_j_4_k_1_s_399 7.3011170693495445e-06
cum_prob_j_4_k_1_s_397 1.5278494124541104e-05
cum_prob_j_4_k_1_s_396 2.3132540189743656e-05
cum_prob_j_4_k_2_s_393 0
cum_prob_j_4_k_2_s_398 0
cum_prob_j_4_k_2_s_390 0
cum_prob_j_4_k_2_s_392 0
cum_prob_j_4_k_2_s_394 0
cum_prob_j_4_k_2_s_391 0
cum_prob_j_4_k_2_s_395 0
cum_prob_j_4_k_2_s_380 0
cum_prob_j_4_k_2_s_381 0
cum_prob_j_4_k_2_s_382 0
cum_prob_j_4_k_2_s_383 0
cum_prob_j_4_k_2_s_384 0
cum_prob_j_4_k_2_s_385 0
cum_prob_j_4_k_2_s_386 0
cum_prob_j_4_k_2_s_387 0
cum_prob_j_4_k_2_s_388 0
cum_prob_j_4_k_2_s_389 0
cum_prob_j_4_k_2_s_399 0
cum_prob_j_4_k_2_s_397 0
cum_prob_j_4_k_2_s_396 0
cum_prob_j_5_k_0_s_393 0
cum_prob_j_5_k_0_s_398 2.5498204562442884e-05
cum_prob_j_5_k_0_s_390 0
cum_prob_j_5_k_0_s_392 1.7513175194048071e-05
cum_prob_j_5_k_0_s_394 0
cum_prob_j_5_k_0_s_391 0
cum_prob_j_5_k_0_s_395 0
cum_prob_j_5_k_0_s_380 4.1549504679566475e-06
cum_prob_j_5_k_0_s_381 9.8652603753477267e-06
cum_prob_j_5_k_0_s_382 0
cum_prob_j_5_k_0_s_383 0
cum_prob_j_5_k_0_s_384 8.6794490588118634e-06
cum_prob_j_5_k_0_s_385 9.6850454560262565e-06
cum_prob_j_5_k_0_s_386 0
cum_prob_j_5_k_0_s_387 7.6867601649898340e-06
cum_prob_j_5_k_0_s_388 6.7686345045017329e-06
cum_prob_j_5_k_0_s_389 0
cum_prob_j_5_k_0_s_399 0
cum_prob_j_5_k_0_s_397 0
cum_prob_j_5_k_0_s_396 0
cum_prob_j_5_k_1_s_393 0
cum_prob_j_5_k_1_s_398 0
cum_prob_j_5_k_1_s_390 0
cum_prob_j_5_k_1_s_392 0
cum_prob_j_5_k_1_s_394 0
cum_prob_j_5_k_1_s_391 0
cum_prob_j_5_k_1_s_395 0
cum_prob_j_5_k_1_s_380 0
cum_prob_j_5_k_1_s_381 0
cum_prob_j_5_k_1_s_382 0
cum_prob_j_5_k_1_s_383 0
cum_prob_j_5_k_1_s_384 0
cum_prob_j_5_k_1_s_385 0
cum_prob_j_5_k_1_s_386 0
cum_prob_j_5_k_1_s_387 0
cum_prob_j_5_k_1_s_388 0
cum_prob_j_5_k_1_s_389 0
cum_prob_j_5_k_1_s_399 0
cum_prob_j_5_k_1_s_397 2.1656657463857955e-06
cum_prob_j_5_k_1_s_396 0
cum_prob_j_5_k_2_s_393 4.9452367294430874e-06
cum_prob_j_5_k_2_s_398 0
cum_prob_j_5_k_2_s_390 6.3222747365540716e-06
cum_prob_j_5_k_2_s_392 0
cum_prob_j_5_k_2_s_394 2.4085462972031130e-06
cum_prob_j_5_k_2_s_391 9.2178597855092089e-07
cum_prob_j_5_k_2_s_395 1.1153607807649229e-05
cum_prob_j_5_k_2_s_380 0
cum_prob_j_5_k_2_s_381 0
cum_prob_j_5_k_2_s_382 2.1120396067491278e-05
cum_prob_j_5_k_2_s_383 1.2988063004775506e-05
cum_prob_j_5_k_2_s_384 0
cum_prob_j_5_k_2_s_385 0
cum_prob_j_5_k_2_s_386 2.4517257195984199e-06
cum_prob_j_5_k_2_s_387 0
cum_prob_j_5_k_2_s_388 0
cum_prob_j_5_k_2_s_389 7.9538847108937546e+02
cum_prob_j_5_k_2_s_399 4.8674110624116435e-06
cum_prob_j_5_k_2_s_397 3.2486009595808481e-06
cum_prob_j_5_k_2_s_396 1.5421693459829104e-05
cum_prob_j_6_k_0_s_393 0
cum_prob_j_6_k_0_s_398 1.8936445477978641e-12
cum_prob_j_6_k_0_s_390 6.3222747365540716e-06
cum_prob_j_6_k_0_s_392 0
cum_prob_j_6_k_0_s_394 0
cum_prob_j_6_k_0_s_391 0
cum_prob_j_6_k_0_s_395 0
cum_prob_j_6_k_0_s_380 0
cum_prob_j_6_k_0_s_381 0
cum_prob_j_6_k_0_s_382 0
cum_prob_j_6_k_0_s_383 1.2988063004775506e-05
cum_prob_j_6_k_0_s_384 0
cum_prob_j_6_k_0_s_385 0
cum_prob_j_6_k_0_s_386 0
cum_prob_j_6_k_0_s_387 0
cum_prob_j_6_k_0_s_388 0
cum_prob_j_6_k_0_s_389 0
cum_prob_j_6_k_0_s_399 0
cum_prob_j_6_k_0_s_397 0
cum_prob_j_6_k_0_s_396 0
cum_prob_j_6_k_1_s_393 0
cum_prob_j_6_k_1_s_398 3.2023606912363093e-06
cum_prob_j_6_k_1_s_390 0
cum_prob_j_6_k_1_s_392 0
cum_prob_j_6_k_1_s_394 0
cum_prob_j_6_k_1_s_391 4.4986278000257959e-07
cum_prob_j_6_k_1_s_395 0
cum_prob_j_6_k_1_s_380 0
cum_prob_j_6_k_1_s_381 0
cum_prob_j_6_k_1_s_382 2.6525449893553943e-06
cum_prob_j_6_k_1_s_383 0
cum_prob_j_6_k_1_s_384 4.5609755369629327e-06
cum_prob_j_6_k_1_s_385 0
cum_prob_j_6_k_1_s_386 0
cum_prob_j_6_k_1_s_387 0
cum_prob_j_6_k_1_s_388 9.7772720734530472e-07
cum_prob_j_6_k_1_s_389 0
cum_prob_j_6_k_1_s_399 0
cum_prob_j_6_k_1_s_397 0
cum_prob_j_6_k_1_s_396 1.9368356583065207e-06
cum_prob_j_6_k_2_s_393 3.2968244862953918e-06
cum_prob_j_6_k_2_s_398 0
cum_prob_j_6_k_2_s_390 0
cum_prob_j_6_k_2_s_392 1.1675450129365380e-05
cum_prob_j_6_k_2_s_394 1.6056975314687421e-06
cum_prob_j_6_k_2_s_391 0
cum_prob_j_6_k_2_s_395 7.4357385384328191e-06
cum_prob_j_6_k_2_s_380 2.7699669786377650e-06
cum_prob_j_6_k_2_s_381 6.5768402502318181e-06
cum_prob_j_6_k_2_s_382 4.7002334242095818e-06
cum_prob_j_6_k_2_s_383 0
cum_prob_j_6_k_2_s_384 -1.9912304173614584e-07
cum_prob_j_6_k_2_s_385 6.4566969706841707e-06
cum_prob_j_6_k_2_s_386 1.6344838130656133e-06
cum_prob_j_6_k_2_s_387 5.1245067766598893e-06
cum_prob_j_6_k_2_s_388 1.4279492631481539e-06
cum_prob_j_6_k_2_s_389 5.3025898072625034e+02
cum_prob_j_6_k_2_s_399 3.2449407082744288e-06
cum_prob_j_6_k_2_s_397 3.6095111373110961e-06
cum_prob_j_6_k_2_s_396 3.4320170187609791e-06
cum_prob_j_7_k_0_s_393 0
cum_prob_j_7_k_0_s_398 0
cum_prob_j_7_k_0_s_390 6.3222747365540716e-06
cum_prob_j_7_k_0_s_392 0
cum_prob_j_7_k_0_s_394 0
cum_prob_j_7_k_0_s_391 4.4986278000257959e-07
cum_prob_j_7_k_0_s_395 0
cum_prob_j_7_k_0_s_380 2.7699669786377650e-06
cum_prob_j_7_k_0_s_381 6.5768402502318181e-06
cum_prob_j_7_k_0_s_382 0
cum_prob_j_7_k_0_s_383 0
cum_prob_j_7_k_0_s_384 4.3613530621792496e-06
cum_prob_j_7_k_0_s_385 6.4566969706841707e-06
cum_prob_j_7_k_0_s_386 0
cum_prob_j_7_k_0_s_387 5.1245067766598893e-06
cum_prob_j_7_k_0_s_388 0
cum_prob_j_7_k_0_s_389 5.3025898072625034e+02
cum_prob_j_7_k_0_s_399 0
cum_prob_j_7_k_0_s_397 0
cum_prob_j_7_k_0_s_396 0
cum_prob_j_7_k_1_s_393 1.6089620184035937e-06
cum_prob_j_7_k_1_s_398 1.5628614109269258e-06
cum_prob_j_7_k_1_s_390 0
cum_prob_j_7_k_1_s_392 0
cum_prob_j_7_k_1_s_394 7.8363478308203024e-07
cum_prob_j_7_k_1_s_391 0
cum_prob_j_7_k_1_s_395 3.6288922679538456e-06
cum_prob_j_7_k_1_s_380 0
cum_prob_j_7_k_1_s_381 0
cum_prob_j_7_k_1_s_382 2.8525165984523025e-06
cum_prob_j_7_k_1_s_383 1.6856233869987445e-06
cum_prob_j_7_k_1_s_384 0
cum_prob_j_7_k_1_s_385 0
cum_prob_j_7_k_1_s_386 0
cum_prob_j_7_k_1_s_387 0
cum_prob_j_7_k_1_s_388 1.3226848536035432e-06
cum_prob_j_7_k_1_s_389 0
cum_prob_j_7_k_1_s_399 1.5836409773369468e-06
cum_prob_j_7_k_1_s_397 1.7615636953316298e-06
cum_prob_j_7_k_1_s_396 2.6201819586437280e-06
cum_prob_j_7_k_2_s_393 0
cum_prob_j_7_k_2_s_398 0
cum_prob_j_7_k_2_s_390 0
cum_prob_j_7_k_2_s_392 7.7836334195769181e-06
cum_prob_j_7_k_2_s_394 0
cum_prob_j_7_k_2_s_391 0
cum_prob_j_7_k_2_s_395 0
cum_prob_j_7_k_2_s_380 0
cum_prob_j_7_k_2_s_381 0
cum_prob_j_7_k_2_s_382 4.5184602982299734e-07
cum_prob_j_7_k_2_s_383 5.2874618958528488e-06
cum_prob_j_7_k_2_s_384 0
cum_prob_j_7_k_2_s_385 0
cum_prob_j_7_k_2_s_386 1.0896558753770756e-06
cum_prob_j_7_k_2_s_387 0
cum_prob_j_7_k_2_s_388 -9.0763524863693250e-08
cum_prob_j_7_k_2_s_389 0
cum_prob_j_7_k_2_s_399 0
cum_prob_j_7_k_2_s_397 0
cum_prob_j_7_k_2_s_396 0
cum_prob_j_8_k_0_s_393 0
cum_prob_j_8_k_0_s_398 0
cum_prob_j_8_k_0_s_390 6.3222747365540716e-06
cum_prob_j_8_k_0_s_392 0
cum_prob_j_8_k_0_s_394 0
cum_prob_j_8_k_0_s_391 0
cum_prob_j_8_k_0_s_395 0
cum_prob_j_8_k_0_s_380 0
cum_prob_j_8_k_0_s_381 0
cum_prob_j_8_k_0_s_382 3.3043626282752997e-06
cum_prob_j_8_k_0_s_383 0
cum_prob_j_8_k_0_s_384 4.3613530621792496e-06
cum_prob_j_8_k_0_s_385 0
cum_prob_j_8_k_0_s_386 1.0896558753770756e-06
cum_prob_j_8_k_0_s_387 0
cum_prob_j_8_k_0_s_388 0
cum_prob_j_8_k_0_s_389 0
cum_prob_j_8_k_0_s_399 0
cum_prob_j_8_k_0_s_397 0
cum_prob_j_8_k_0_s_396 2.6201819586437280e-06
cum_prob_j_8_k_1_s_393 0
cum_prob_j_8_k_1_s_398 7.6272930532486066e-07
cum_prob_j_8_k_1_s_390 0
cum_prob_j_8_k_1_s_392 3.7986767537475896e-06
cum_prob_j_8_k_1_s_394 0
cum_prob_j_8_k_1_s_391 0
cum_prob_j_8_k_1_s_395 1.7710223435573781e-06
cum_prob_j_8_k_1_s_380 0
cum_prob_j_8_k_1_s_381 2.1979916559221435e-07
cum_prob_j_8_k_1_s_382 0
cum_prob_j_8_k_1_s_383 3.4031018083721078e-06
cum_prob_j_8_k_1_s_384 0
cum_prob_j_8_k_1_s_385 0
cum_prob_j_8_k_1_s_386 0
cum_prob_j_8_k_1_s_387 2.5009328828307040e-06
cum_prob_j_8_k_1_s_388 6.0097559546637045e-07
cum_prob_j_8_k_1_s_389 2.5878434337420089e+02
cum_prob_j_8_k_1_s_399 7.7287043757245203e-07
cum_prob_j_8_k_1_s_397 8.5970275050102351e-07
cum_prob_j_8_k_1_s_396 0
cum_prob_j_8_k_2_s_393 1.0726413456023957e-06
cum_prob_j_8_k_2_s_398 0
cum_prob_j_8_k_2_s_390 0
cum_prob_j_8_k_2_s_392 0
cum_prob_j_8_k_2_s_394 5.2242318872135349e-07
cum_prob_j_8_k_2_s_391 2.9990852000171971e-07
cum_prob_j_8_k_2_s_395 0
cum_prob_j_8_k_2_s_380 1.8466446524251767e-06
cum_prob_j_8_k_2_s_381 3.9449618356367834e-06
cum_prob_j_8_k_2_s_382 0
cum_prob_j_8_k_2_s_383 0
cum_prob_j_8_k_2_s_384 0
cum_prob_j_8_k_2_s_385 4.3044646218590383e-06
cum_prob_j_8_k_2_s_386 0
cum_prob_j_8_k_2_s_387 0
cum_prob_j_8_k_2_s_388 0
cum_prob_j_8_k_2_s_389 0
cum_prob_j_8_k_2_s_399 0
cum_prob_j_8_k_2_s_397 0
cum_prob_j_8_k_2_s_396 0
cum_prob_j_9_k_0_s_393 0
cum_prob_j_9_k_0_s_398 7.6272930532486061e-14
cum_prob_j_9_k_0_s_390 6.3222747365540719e-13
cum_prob_j_9_k_0_s_392 3.7986767537475896e-06
cum_prob_j_9_k_0_s_394 0
cum_prob_j_9_k_0_s_391 0
cum_prob_j_9_k_0_s_395 1.7710223435573781e-13
cum_prob_j_9_k_0_s_380 1.8466446524251767e-13
cum_prob_j_9_k_0_s_381 2.6110502226411299e-13
cum_prob_j_9_k_0_s_382 3.3043626282752997e-13
cum_prob_j_9_k_0_s_383 2.3867955868663406e-13
cum_prob_j_9_k_0_s_384 4.3613530621792496e-13
cum_prob_j_9_k_0_s_385 4.3044646218590383e-06
cum_prob_j_9_k_0_s_386 1.0896558753770756e-13
cum_prob_j_9_k_0_s_387 2.5009328828307042e-13
cum_prob_j_9_k_0_s_388 6.0097559546637045e-07
cum_prob_j_9_k_0_s_389 2.5878434337420089e+02
cum_prob_j_9_k_0_s_399 7.7287043757245203e-14
cum_prob_j_9_k_0_s_397 0
cum_prob_j_9_k_0_s_396 2.6201819586437280e-06
cum_prob_j_9_k_1_s_393 0
cum_prob_j_9_k_1_s_398 0
cum_prob_j_9_k_1_s_390 0
cum_prob_j_9_k_1_s_392 0
cum_prob_j_9_k_1_s_394 0
cum_prob_j_9_k_1_s_391 1.4636551617603046e-07
cum_prob_j_9_k_1_s_395 0
cum_prob_j_9_k_1_s_380 0
cum_prob_j_9_k_1_s_381 7.5826348679581192e-07
cum_prob_j_9_k_1_s_382 0
cum_prob_j_9_k_1_s_383 0
cum_prob_j_9_k_1_s_384 0
cum_prob_j_9_k_1_s_385 0
cum_prob_j_9_k_1_s_386 0
cum_prob_j_9_k_1_s_387 0
cum_prob_j_9_k_1_s_388 0
cum_prob_j_9_k_1_s_389 0
cum_prob_j_9_k_1_s_399 0
cum_prob_j_9_k_1_s_397 4.1956406184897286e-07
cum_prob_j_9_k_1_s_396 0
cum_prob_j_9_k_2_s_393 7.1509423040159714e-07
cum_prob_j_9_k_2_s_398 0
cum_prob_j_9_k_2_s_390 0
cum_prob_j_9_k_2_s_392 0
cum_prob_j_9_k_2_s_394 3.4828212581423564e-07
cum_prob_j_9_k_2_s_391 0
cum_prob_j_9_k_2_s_395 0
cum_prob_j_9_k_2_s_380 0
cum_prob_j_9_k_2_s_381 0
cum_prob_j_9_k_2_s_382 0
cum_prob_j_9_k_2_s_383 6.7753748100384467e-07
cum_prob_j_9_k_2_s_384 0
cum_prob_j_9_k_2_s_385 0
cum_prob_j_9_k_2_s_386 0
cum_prob_j_9_k_2_s_387 0
cum_prob_j_9_k_2_s_388 0
cum_prob_j_9_k_2_s_389 0
cum_prob_j_9_k_2_s_399 0
cum_prob_j_9_k_2_s_397 0
cum_prob_j_9_k_2_s_396 0
